c Reduced graph for p34 generated by Cyril Grelier
p edge 74 421
e 1 3
e 1 11
e 1 15
e 1 31
e 1 35
e 1 51
e 1 56
e 1 61
e 1 69
e 2 3
e 2 10
e 2 17
e 2 29
e 2 30
e 2 32
e 2 36
e 2 37
e 2 43
e 2 68
e 2 70
e 3 11
e 3 17
e 3 30
e 3 35
e 3 36
e 3 37
e 3 51
e 4 10
e 4 19
e 4 20
e 4 37
e 4 44
e 4 50
e 4 53
e 4 56
e 4 60
e 4 64
e 5 6
e 5 9
e 5 16
e 5 30
e 5 57
e 5 74
e 6 16
e 6 24
e 6 27
e 6 49
e 6 54
e 6 65
e 7 8
e 7 14
e 7 16
e 7 17
e 7 20
e 7 24
e 7 29
e 7 42
e 7 47
e 7 57
e 7 58
e 7 62
e 7 63
e 8 12
e 8 14
e 8 16
e 8 17
e 8 25
e 8 41
e 8 42
e 8 47
e 8 51
e 8 58
e 8 62
e 8 63
e 9 27
e 9 30
e 9 38
e 9 46
e 9 57
e 9 58
e 9 59
e 9 67
e 9 68
e 9 74
e 10 19
e 10 29
e 10 32
e 10 43
e 10 50
e 10 53
e 10 68
e 10 70
e 11 32
e 11 35
e 11 47
e 11 51
e 11 52
e 12 25
e 12 31
e 12 38
e 12 41
e 12 51
e 12 52
e 12 66
e 13 15
e 13 18
e 13 19
e 13 21
e 13 23
e 13 33
e 13 34
e 13 36
e 13 59
e 13 60
e 13 63
e 13 74
e 14 16
e 14 17
e 14 39
e 14 42
e 14 47
e 14 48
e 14 49
e 14 58
e 14 62
e 14 63
e 14 70
e 14 72
e 15 19
e 15 21
e 15 31
e 15 34
e 15 36
e 15 56
e 15 59
e 15 61
e 15 69
e 16 17
e 16 42
e 16 47
e 16 58
e 16 62
e 16 63
e 17 30
e 17 36
e 17 37
e 17 42
e 17 47
e 17 58
e 17 62
e 17 63
e 18 22
e 18 23
e 18 33
e 18 39
e 18 53
e 18 55
e 18 60
e 18 63
e 18 67
e 18 74
e 19 21
e 19 34
e 19 36
e 19 50
e 19 53
e 19 59
e 20 24
e 20 29
e 20 37
e 20 44
e 20 56
e 20 57
e 20 60
e 20 64
e 21 28
e 21 34
e 21 35
e 21 36
e 21 40
e 21 43
e 21 54
e 21 55
e 21 59
e 21 62
e 21 64
e 21 73
e 22 26
e 22 34
e 22 39
e 22 42
e 22 44
e 22 45
e 22 53
e 22 55
e 22 65
e 22 66
e 22 67
e 22 71
e 23 33
e 23 41
e 23 45
e 23 46
e 23 48
e 23 60
e 23 63
e 23 69
e 23 73
e 23 74
e 24 27
e 24 29
e 24 49
e 24 54
e 24 57
e 24 65
e 25 28
e 25 41
e 25 51
e 25 71
e 26 33
e 26 34
e 26 40
e 26 42
e 26 44
e 26 45
e 26 50
e 26 61
e 26 65
e 26 66
e 26 71
e 26 72
e 27 38
e 27 46
e 27 49
e 27 54
e 27 58
e 27 59
e 27 65
e 27 67
e 27 68
e 28 35
e 28 40
e 28 43
e 28 54
e 28 55
e 28 62
e 28 64
e 28 71
e 28 73
e 29 32
e 29 43
e 29 57
e 29 68
e 29 70
e 30 36
e 30 37
e 30 57
e 30 74
e 31 38
e 31 52
e 31 56
e 31 61
e 31 66
e 31 69
e 32 43
e 32 47
e 32 52
e 32 68
e 32 70
e 33 40
e 33 50
e 33 60
e 33 61
e 33 63
e 33 72
e 33 74
e 34 36
e 34 42
e 34 44
e 34 45
e 34 59
e 34 65
e 34 66
e 34 71
e 35 40
e 35 43
e 35 51
e 35 54
e 35 55
e 35 62
e 35 64
e 35 73
e 36 37
e 36 59
e 37 44
e 37 56
e 37 60
e 37 64
e 38 46
e 38 52
e 38 58
e 38 59
e 38 66
e 38 67
e 38 68
e 39 48
e 39 49
e 39 53
e 39 55
e 39 67
e 39 70
e 39 72
e 40 43
e 40 50
e 40 54
e 40 55
e 40 61
e 40 62
e 40 64
e 40 72
e 40 73
e 41 45
e 41 46
e 41 48
e 41 51
e 41 69
e 41 73
e 42 44
e 42 45
e 42 47
e 42 58
e 42 62
e 42 63
e 42 65
e 42 66
e 42 71
e 43 54
e 43 55
e 43 62
e 43 64
e 43 68
e 43 70
e 43 73
e 44 45
e 44 56
e 44 60
e 44 64
e 44 65
e 44 66
e 44 71
e 45 46
e 45 48
e 45 65
e 45 66
e 45 69
e 45 71
e 45 73
e 46 48
e 46 58
e 46 59
e 46 67
e 46 68
e 46 69
e 46 73
e 47 52
e 47 58
e 47 62
e 47 63
e 48 49
e 48 69
e 48 70
e 48 72
e 48 73
e 49 54
e 49 65
e 49 70
e 49 72
e 50 53
e 50 61
e 50 72
e 52 66
e 53 55
e 53 67
e 54 55
e 54 62
e 54 64
e 54 65
e 54 73
e 55 62
e 55 64
e 55 67
e 55 73
e 56 60
e 56 61
e 56 64
e 56 69
e 57 74
e 58 59
e 58 62
e 58 63
e 58 67
e 58 68
e 59 67
e 59 68
e 60 63
e 60 64
e 60 74
e 61 69
e 61 72
e 62 63
e 62 64
e 62 73
e 63 74
e 64 73
e 65 66
e 65 71
e 66 71
e 67 68
e 68 70
e 69 73
e 70 72
